COMUNI = {
	castiglione_del_lago,
	todi,
	assisi,
	corciano,
	magione,
	spoleto,
	narni,
	citta_di_castello,
	amelia,
	umbertide,
};

NUMERO_COMUNI = 10;

ABITANTI_PER_COMUNE = [15, 15, 27, 21, 14, 36, 17, 38, 11, 16];

STRADE_TRA_COMUNI = [|
	false, false, false, false, true, false, false, false, false, false |
	false, false, false, false, false, false, false, false, true, false |
	false, false, false, false, false, false, false, false, false, false |
	false, false, false, false, true, false, false, false, false, false |
	true, false, false, true, false, false, false, false, false, false |
	false, false, false, false, false, false, false, false, false, false |
	false, false, false, false, false, false, false, false, true, false |
	false, false, false, false, false, false, false, false, false, true |
	false, true, false, false, false, false, true, false, false, false |
	false, false, false, false, false, false, false, true, false, false |
|];

RICHIESTE = [|
	20, 478, 449, 58, 205 |
	197, 624, 801, 110, 154 |
	189, 73, 109, 164, 48 |
	171, 21, 37, 103, 23 |
	402, 221, 81, 114, 28 |
	111, 601, 60, 154, 196 |
	880, 382, 3, 78, 5 |
	66, 274, 91, 161, 383 |
	462, 87, 319, 27, 145 |
	85, 9, 155, 159, 202 |
|];
